c ---- [ banner ] ------------------------------------------------------------
c
c Kissat SAT Solver
c 
c Copyright (c) 2021-2024 Armin Biere University of Freiburg
c Copyright (c) 2019-2021 Armin Biere Johannes Kepler University Linz
c 
c Version 4.0.1 43f02cf3e992cb44653b35e5cb26f93281552ae0
c gcc (Ubuntu 13.2.0-23ubuntu4) 13.2.0 -W -Wall -O3 -DNDEBUG
c Thu Sep 12 12:27:46 CEST 2024 Linux abryzen9 6.8.0-41-generic x86_64
c
c ---- [ parsing ] -----------------------------------------------------------
c
c opened and reading DIMACS file:
c
c   /data/artifact/AMulet2.0_artifact/exp4/cnf_resyn3_64/64_64_U2_DT_BK_Multgen_resyn3.cnf
c
c parsed 'p cnf 26406 120928' header
c closing input after reading 2413235 bytes (2 MB)
c finished parsing after 0.02 seconds
c
c ---- [ options ] -----------------------------------------------------------
c
c --stable=0                       (different from default '1')
c
c ---- [ solving ] -----------------------------------------------------------
c
c  seconds switched rate     size/glue tier1  binary          remaining
c         MB reductions conflicts size  tier2    irredundant
c          level restarts redundant glue  trail          variables
c
c *  0.02 10 0 0 0  0 0   0   0 0.0 0 0 0 0 0% 1949 118977 26403 100%
c (  0.03 12 0 0 0  0 0   0   0 0.0 0 0 0 0 0% 1949 118977 26403 100%
c .  0.03 12 0 0 0  0 0   0   0 0.0 0 0 0 0 0% 1945 118977 26403 100%
c =  0.11 17 0 0 0  0 0   0   0 0.0 0 0 0 0 0% 2424 118977 26181 99%
c d  0.11 17 0 0 0  0 0   0   0 0.0 0 0 0 0 0% 1980 118977 26181 99%
c f  0.22 16 0 0 0  0 0   0   0 0.0 0 0 0 0 0% 8274 109521 29334 111%
c e  0.44 26 0 0 0  0 0   0   0 0.0 0 0 0 0 0% 1412 119237 19935 75%
c )  0.44 26 0 0 0  0 0   0   0 0.0 0 0 0 0 0% 1412 119237 19935 75%
c {  0.46 26 0 0 0  0 0   0   0 0.0 0 0 2 6 0% 1412 119237 19935 75%
c -  0.64 26 175 0 1 159 27 1000 845 3.4 16 5 3 8 15% 1431 119237 19935 75%
c -  1.08 28 266 0 2 388 45 2000 1605 3.6 20 5 3 8 22% 1454 119237 19935 75%
c d  1.22 28 271 0 2 461 48 2504 2055 3.6 20 6 3 8 24% 1444 119237 19927 75%
c u  1.25 28 271 0 2 461 48 2504 1766 3.6 20 6 3 8 24% 1445 119237 19927 75%
c v  1.27 28 271 0 2 461 48 2504 1507 3.6 20 6 3 8 24% 1445 119237 19927 75%
c w  1.31 28 271 0 2 461 48 2504 1504 3.6 20 6 3 8 24% 1445 119237 19927 75%
c x  1.34 28 271 0 2 461 48 2504 1504 3.6 20 6 3 8 24% 1445 119192 19927 75%
c =  1.42 28 271 0 2 461 48 2504 1504 3.6 20 6 3 8 24% 1461 119192 19919 75%
c d  1.43 28 271 0 2 461 48 2504 1504 3.6 20 6 3 8 24% 1445 119192 19919 75%
c f  1.48 28 271 0 2 461 48 2504 1504 3.6 20 6 3 8 24% 1451 119182 19923 75%
c c  1.55 23 271 0 2 461 48 2504 1504 3.6 20 6 3 8 24% 1453 119174 19922 75%
c
c  seconds   switched   rate       size/glue tier1    binary          remaining
c         MB  reductions conflicts       size  tier2     irredundant
c           level restarts    redundant    glue   trail          variables
c
c d  1.56 23 271 0 2 461 48 2504 1504 3.6 20 6 3 8 24% 1451 119174 19922 75%
c u  1.58 23 271 0 2 461 48 2504 1477 3.6 20 6 3 8 24% 1451 119174 19922 75%
c v  1.59 23 271 0 2 461 48 2504 1439 3.6 20 6 3 8 24% 1451 119174 19922 75%
c w  1.63 25 271 0 2 461 48 2504 1427 3.6 20 6 3 8 24% 1451 119174 19922 75%
c =  1.72 25 271 0 2 461 48 2504 1427 3.6 20 6 3 8 24% 1549 119174 19873 75%
c d  1.73 25 271 0 2 461 48 2504 1426 3.6 20 6 3 8 24% 1449 119174 19873 75%
c t  1.74 25 271 0 2 461 48 2504 1426 3.6 20 6 3 8 24% 1447 119174 19873 75%
c f  1.77 25 271 0 2 461 48 2504 1426 3.6 20 6 3 8 24% 1479 119126 19889 75%
c -  2.07 25 242 0 3 587 46 3414 2036 3.5 19 6 3 8 26% 1488 119126 19889 75%
c -  2.44 26 300 0 4 718 40 5149 3312 3.3 18 5 2 8 24% 1496 119126 19889 75%
c -  3.00 26 317 0 5 944 42 7149 4540 3.5 19 6 2 8 24% 1511 119126 19889 75%
c d  3.14 26 317 0 5 1003 43 7711 5021 3.5 19 6 2 8 25% 1520 119126 19885 75%
c u  3.17 26 317 0 5 1003 43 7711 4604 3.5 19 6 2 8 25% 1524 119126 19885 75%
c v  3.21 26 317 0 5 1003 43 7711 3920 3.5 19 6 2 8 25% 1524 119126 19885 75%
c w  3.25 26 317 0 5 1003 43 7711 3908 3.5 19 6 2 8 25% 1524 119126 19885 75%
c x  3.29 26 317 0 5 1003 43 7711 3908 3.5 19 6 2 8 25% 1524 119078 19885 75%
c =  3.43 26 317 0 5 1003 43 7711 3908 3.5 19 6 2 8 25% 2006 119078 19644 74%
c d  3.44 26 317 0 5 1003 43 7711 3905 3.5 19 6 2 8 25% 1520 119078 19643 74%
c t  3.46 26 317 0 5 1003 43 7711 3905 3.5 19 6 2 8 25% 1519 119078 19643 74%
c f  3.50 26 317 0 5 1003 43 7711 3905 3.5 19 6 2 8 25% 1578 118988 19672 75%
c
c  seconds   switched    rate       size/glue tier1    binary          remaining
c         MB  reductions  conflicts       size  tier2     irredundant
c           level  restarts    redundant    glue   trail          variables
c
c u  3.54 26 317 0 5 1003 43 7711 3855 3.5 19 6 2 8 25% 1579 118988 19672 75%
c v  3.57 26 317 0 5 1003 43 7711 3743 3.5 19 6 2 8 25% 1579 118988 19672 75%
c w  3.61 26 317 0 5 1003 43 7711 3739 3.5 19 6 2 8 25% 1579 118988 19672 75%
c =  3.75 26 317 0 5 1003 43 7711 3739 3.5 19 6 2 8 25% 1705 118988 19609 74%
c d  3.76 26 317 0 5 1003 43 7711 3738 3.5 19 6 2 8 25% 1579 118988 19609 74%
c t  3.78 26 317 0 5 1003 43 7711 3738 3.5 19 6 2 8 25% 1553 118988 19609 74%
c f  3.82 26 317 0 5 1003 43 7711 3738 3.5 19 6 2 8 25% 1635 118863 19650 74%
c -  4.31 26 302 0 6 1209 42 9385 4720 3.6 21 6 2 8 25% 1663 118863 19650 74%
c o  4.54 26 294 0 6 1266 42 10057 5187 3.8 22 6 2 8 26% 1712 118863 19650 74%
c -  5.13 26 281 0 7 1458 40 11834 6135 3.8 22 6 2 8 26% 1748 118863 19650 74%
c s  5.30 26 277 0 7 1490 39 12514 6734 3.8 22 6 2 8 26% 1753 115645 19650 74%
c e  5.42 26 277 0 7 1490 39 12514 6734 3.8 22 6 2 8 26% 1553 115738 19356 73%
c s  5.43 26 277 0 7 1490 39 12514 6734 3.8 22 6 2 8 26% 1553 115563 19356 73%
c e  5.44 26 277 0 7 1490 39 12514 6734 3.8 22 6 2 8 26% 1542 115573 19345 73%
c ^  5.44 26 277 0 7 1490 39 12514 6734 3.8 22 6 2 8 26% 1542 115573 19345 73%
c -  6.05 26 281 0 8 1673 39 14479 7463 3.8 24 6 2 7 26% 1587 115573 19345 73%
c c  6.49 28 284 0 8 1806 39 15798 8595 3.8 24 6 2 7 26% 1636 115425 19320 73%
c d  6.50 28 284 0 8 1806 39 15798 8588 3.8 24 6 2 7 26% 1584 115425 19319 73%
c u  6.55 28 284 0 8 1806 39 15798 7780 3.8 24 6 2 7 26% 1593 115425 19319 73%
c v  6.60 28 284 0 8 1806 39 15798 6769 3.8 24 6 2 7 26% 1594 115425 19319 73%
c
c  seconds   switched    rate        size/glue tier1    binary          remaining
c         MB  reductions   conflicts       size  tier2     irredundant
c           level  restarts     redundant    glue   trail          variables
c
c w  6.75 28 284 0 8 1806 39 15798 6740 3.8 24 6 2 7 26% 1594 115425 19319 73%
c =  6.99 28 284 0 8 1806 39 15798 6740 3.8 24 6 2 7 26% 3228 115421 18502 70%
c d  6.99 28 284 0 8 1806 39 15798 6703 3.8 24 6 2 7 26% 1522 115421 18500 70%
c t  7.01 28 284 0 8 1806 39 15798 6703 3.8 24 6 2 7 26% 1498 115421 18500 70%
c f  7.07 28 284 0 8 1806 39 15798 6703 3.8 24 6 2 7 26% 1531 115335 18523 70%
c u  7.12 28 284 0 8 1806 39 15798 6501 3.8 24 6 2 7 26% 1534 115335 18523 70%
c v  7.16 28 284 0 8 1806 39 15798 6347 3.8 24 6 2 7 26% 1534 115335 18523 70%
c w  7.27 28 284 0 8 1806 39 15798 6318 3.8 24 6 2 7 26% 1534 115335 18523 70%
c x  7.32 28 284 0 8 1806 39 15798 6317 3.8 24 6 2 7 26% 1534 112171 18523 70%
c =  7.55 28 284 0 8 1806 39 15798 6317 3.8 24 6 2 7 26% 5318 112171 16631 63%
c d  7.56 28 284 0 8 1806 39 15798 6220 3.8 24 6 2 7 26% 1424 112171 16631 63%
c t  7.58 28 284 0 8 1806 39 15798 6220 3.8 24 6 2 7 26% 1409 112171 16631 63%
c f  7.63 28 284 0 8 1806 39 15798 6220 3.8 24 6 2 7 26% 1424 112126 16643 63%
c -  7.96 28 278 0 9 1912 38 17308 6833 3.7 24 6 2 7 26% 1452 112126 16643 63%
c o  8.49 28 272 0 9 2084 36 20065 9269 3.6 23 6 2 7 25% 1481 112126 16643 63%
c -  8.61 28 273 0 10 2125 37 20308 8649 3.7 24 6 2 7 25% 1481 112126 16643 63%
c -  9.37 28 272 0 11 2350 36 23470 10373 3.7 23 6 2 7 26% 1532 112126 16643 63%
c s  9.64 28 270 0 11 2433 35 25024 11764 3.6 23 6 2 7 25% 1558 97687 16643 63%
c e  9.75 28 270 0 11 2433 35 25024 11764 3.6 23 6 2 7 25% 1301 98000 16422 62%
c s  9.75 28 270 0 11 2433 35 25024 11764 3.6 23 6 2 7 25% 1337 97556 16422 62%
c
c  seconds   switched     rate         size/glue tier1    binary         remaining
c         MB   reductions   conflicts        size  tier2     irredundant
c           level   restarts      redundant    glue   trail         variables
c
c e  9.76 28 270 0 11 2433 35 25024 11764 3.6 23 6 2 7 25% 1330 97564 16419 62%
c ^  9.76 28 270 0 11 2433 35 25024 11764 3.6 23 6 2 7 25% 1330 97564 16419 62%
c - 10.08 28 269 0 12 2541 34 26788 11481 3.6 23 6 2 6 25% 1359 97564 16419 62%
c c 10.14 28 268 0 12 2541 34 26932 11580 3.6 23 6 2 6 25% 1396 97348 16390 62%
c d 10.15 28 268 0 12 2541 34 26932 11517 3.6 23 6 2 6 25% 1333 97348 16387 62%
c u 10.20 28 268 0 12 2541 34 26932 10154 3.6 23 6 2 6 25% 1352 97348 16387 62%
c v 10.24 28 268 0 12 2541 34 26932 9094 3.6 23 6 2 6 25% 1354 97348 16387 62%
c w 10.25 28 268 0 12 2541 34 26932 9091 3.6 23 6 2 6 25% 1354 97348 16387 62%
c = 10.48 28 268 0 12 2541 34 26932 9091 3.6 23 6 2 6 25% 3734 97344 15197 58%
c d 10.49 28 268 0 12 2541 34 26932 8847 3.6 23 6 2 6 25% 1265 97344 15196 58%
c t 10.50 28 268 0 12 2541 34 26932 8847 3.6 23 6 2 6 25% 1244 97344 15196 58%
c f 10.56 28 268 0 12 2541 34 26932 8847 3.6 23 6 2 6 25% 1246 97339 15197 58%
c u 10.66 28 268 0 12 2541 34 26932 8529 3.6 23 6 2 6 25% 1248 97339 15197 58%
c v 10.70 28 268 0 12 2541 34 26932 8354 3.6 23 6 2 6 25% 1248 97339 15197 58%
c w 10.70 28 268 0 12 2541 34 26932 8352 3.6 23 6 2 6 25% 1248 97339 15197 58%
c x 10.77 28 268 0 12 2541 34 26932 8352 3.6 23 6 2 6 25% 1249 93024 15197 58%
c = 10.97 28 268 0 12 2541 34 26932 8352 3.6 23 6 2 6 25% 2783 93024 14430 55%
c d 10.98 28 268 0 12 2541 34 26932 8250 3.6 23 6 2 6 25% 1227 93024 14430 55%
c t 10.99 28 268 0 12 2541 34 26932 8250 3.6 23 6 2 6 25% 1178 93024 14430 55%
c f 11.01 28 268 0 12 2541 34 26932 8250 3.6 23 6 2 6 25% 1208 92933 14444 55%
c
c  seconds   switched     rate         size/glue tier1    binary         remaining
c         MB   reductions   conflicts        size  tier2     irredundant
c           level   restarts      redundant    glue   trail         variables
c
c - 11.92 29 261 0 13 2940 34 30252 10308 3.5 23 7 2 6 26% 1224 92933 14444 55%
c - 12.78 29 254 0 14 3297 33 33857 12348 3.5 23 7 2 6 26% 1244 92933 14444 55%
c - 13.48 29 241 0 15 3564 32 37598 14026 3.5 23 7 2 6 25% 1281 92932 14444 55%
c o 13.68 29 235 0 15 3624 30 40119 16009 3.4 22 6 2 6 24% 1334 92932 14444 55%
c d 14.06 29 233 0 15 3781 30 41259 16872 3.5 23 7 2 6 24% 1289 92932 14417 55%
c u 14.14 29 233 0 15 3781 30 41259 14828 3.5 23 7 2 6 24% 1309 92932 14417 55%
c v 14.20 29 233 0 15 3781 30 41259 13775 3.5 23 7 2 6 24% 1309 92932 14417 55%
c w 14.25 29 233 0 15 3781 30 41259 13775 3.5 23 7 2 6 24% 1309 92932 14417 55%
c x 14.29 29 233 0 15 3781 30 41259 13775 3.5 23 7 2 6 24% 1309 92930 14417 55%
c = 14.54 29 233 0 15 3781 30 41259 13775 3.5 23 7 2 6 24% 1335 92930 14404 55%
c d 14.55 29 233 0 15 3781 30 41259 13740 3.5 23 7 2 6 24% 1292 92930 14400 55%
c t 14.56 29 233 0 15 3781 30 41259 13740 3.5 23 7 2 6 24% 1290 92930 14400 55%
c f 14.58 29 233 0 15 3781 30 41259 13740 3.5 23 7 2 6 24% 1308 92872 14409 55%
c c 14.64 29 233 0 15 3781 30 41259 13628 3.5 23 7 2 6 24% 1351 92699 14386 54%
c d 14.65 29 233 0 15 3781 30 41259 13628 3.5 23 7 2 6 24% 1305 92699 14386 54%
c u 14.71 29 233 0 15 3781 30 41259 13266 3.5 23 7 2 6 24% 1311 92699 14386 54%
c v 14.77 29 233 0 15 3781 30 41259 12328 3.5 23 7 2 6 24% 1315 92699 14386 54%
c w 14.92 29 233 0 15 3781 30 41259 12278 3.5 23 7 2 6 24% 1315 92699 14386 54%
c = 15.19 29 233 0 15 3781 30 41259 12278 3.5 23 7 2 6 24% 1349 92699 14369 54%
c d 15.19 29 233 0 15 3781 30 41259 12260 3.5 23 7 2 6 24% 1300 92699 14367 54%
c
c  seconds   switched     rate         size/glue tier1    binary         remaining
c         MB   reductions   conflicts        size  tier2     irredundant
c           level   restarts      redundant    glue   trail         variables
c
c t 15.21 29 233 0 15 3781 30 41259 12260 3.5 23 7 2 6 24% 1295 92699 14367 54%
c - 15.30 29 233 0 16 3832 30 41470 11304 3.5 23 7 2 6 25% 1295 92699 14367 54%
c - 16.55 29 229 0 17 4393 31 45470 13509 3.5 24 7 2 6 25% 1320 92699 14367 54%
c - 16.96 29 232 0 18 4667 30 49593 15658 3.4 24 7 2 5 24% 1356 92699 14367 54%
c s 17.19 29 229 0 18 4775 30 52124 17862 3.4 24 7 2 5 25% 1384 83916 14367 54%
c e 17.25 29 229 0 18 4775 30 52124 17862 3.4 24 7 2 5 25% 1234 84194 14156 54%
c 2 17.25 29 229 0 18 4775 30 52124 17862 3.4 24 7 2 5 25% 1229 84194 14156 54%
c s 17.25 29 229 0 18 4775 30 52124 17862 3.4 24 7 2 5 25% 1230 83989 14156 54%
c e 17.25 29 229 0 18 4775 30 52124 17862 3.4 24 7 2 5 25% 1222 83998 14153 54%
c ^ 17.25 29 229 0 18 4775 30 52124 17862 3.4 24 7 2 5 25% 1222 83998 14153 54%
c - 17.47 29 225 0 19 4892 29 53835 17060 3.4 23 7 2 5 25% 1228 83998 14153 54%
c - 18.00 29 219 0 20 5251 28 58193 18747 3.4 24 7 2 5 25% 1272 83998 14153 54%
c c 18.14 29 219 0 20 5326 28 58887 19364 3.4 24 7 2 5 25% 1352 83535 14092 53%
c d 18.14 29 219 0 20 5326 28 58887 19126 3.4 24 7 2 5 25% 1230 83535 14092 53%
c u 18.20 29 219 0 20 5326 28 58887 16732 3.4 24 7 2 5 25% 1286 83535 14092 53%
c v 18.24 29 219 0 20 5326 28 58887 15772 3.4 24 7 2 5 25% 1287 83535 14092 53%
c w 18.28 29 219 0 20 5326 28 58887 15763 3.4 24 7 2 5 25% 1287 83535 14092 53%
c x 18.32 29 219 0 20 5326 28 58887 15763 3.4 24 7 2 5 25% 1294 83344 14092 53%
c d 18.52 29 219 0 20 5326 28 58887 15706 3.4 24 7 2 5 25% 1250 83344 14070 53%
c t 18.53 29 219 0 20 5326 28 58887 15706 3.4 24 7 2 5 25% 1241 83344 14070 53%
c
c  seconds   switched     rate         size/glue tier1    binary         remaining
c         MB   reductions   conflicts        size  tier2     irredundant
c           level   restarts      redundant    glue   trail         variables
c
c f 18.54 29 219 0 20 5326 28 58887 15706 3.4 24 7 2 5 25% 1250 83290 14077 53%
c c 18.58 29 219 0 20 5326 28 58887 15624 3.4 24 7 2 5 25% 1283 83118 14057 53%
c d 18.58 29 219 0 20 5326 28 58887 15624 3.4 24 7 2 5 25% 1243 83118 14057 53%
c u 18.62 29 219 0 20 5326 28 58887 14841 3.4 24 7 2 5 25% 1257 83118 14057 53%
c v 18.68 29 219 0 20 5326 28 58887 14225 3.4 24 7 2 5 25% 1260 83118 14057 53%
c w 18.75 29 219 0 20 5326 28 58887 14023 3.4 24 7 2 5 25% 1260 83118 14057 53%
c x 18.80 29 219 0 20 5326 28 58887 14023 3.4 24 7 2 5 25% 1260 83109 14057 53%
c d 18.80 29 219 0 20 5326 28 58887 14021 3.4 24 7 2 5 25% 1254 83109 14054 53%
c t 18.82 29 219 0 20 5326 28 58887 14021 3.4 24 7 2 5 25% 1252 83109 14054 53%
c - 19.04 29 223 0 21 5457 28 62666 15710 3.3 23 7 2 5 24% 1306 83108 14054 53%
c - 19.47 29 221 0 22 5770 27 67248 18013 3.3 23 7 2 5 24% 1356 83107 14054 53%
c o 19.84 29 217 0 22 5968 26 70357 20689 3.3 23 7 2 5 24% 1403 83106 14054 53%
c - 20.16 29 216 0 23 6207 27 71938 19922 3.3 23 7 2 5 24% 1422 83106 14054 53%
c - 21.09 29 212 0 24 6899 27 76733 19471 3.3 24 7 1 5 25% 1455 83106 14054 53%
c c 21.65 29 210 0 24 7311 27 79958 22454 3.3 24 7 1 5 25% 1564 82252 13920 53%
c d 21.66 29 210 0 24 7311 27 79958 22021 3.3 24 7 1 5 25% 1296 82252 13920 53%
c u 21.69 29 210 0 24 7311 27 79958 20283 3.3 24 7 1 5 25% 1336 82252 13920 53%
c v 21.76 29 210 0 24 7311 27 79958 17242 3.3 24 7 1 5 25% 1364 82252 13920 53%
c w 21.88 29 210 0 24 7311 27 79958 17218 3.3 24 7 1 5 25% 1364 82252 13920 53%
c = 21.99 29 210 0 24 7311 27 79958 17218 3.3 24 7 1 5 25% 1466 82252 13869 53%
c
c  seconds   switched     rate         size/glue tier1    binary         remaining
c         MB   reductions   conflicts        size  tier2     irredundant
c           level   restarts      redundant    glue   trail         variables
c
c d 22.00 29 210 0 24 7311 27 79958 17130 3.3 24 7 1 5 25% 1296 82252 13845 52%
c t 22.01 29 210 0 24 7311 27 79958 17130 3.3 24 7 1 5 25% 1288 82252 13845 52%
c f 22.02 29 210 0 24 7311 27 79958 17130 3.3 24 7 1 5 25% 1288 82247 13846 52%
c c 22.05 29 210 0 24 7311 27 79958 17077 3.3 24 7 1 5 25% 1316 82078 13828 52%
c d 22.06 29 210 0 24 7311 27 79958 17077 3.3 24 7 1 5 25% 1280 82078 13828 52%
c u 22.09 29 210 0 24 7311 27 79958 16655 3.3 24 7 1 5 25% 1289 82078 13828 52%
c v 22.13 29 210 0 24 7311 27 79958 16053 3.3 24 7 1 5 25% 1294 82078 13828 52%
c w 22.21 29 210 0 24 7311 27 79958 15963 3.3 24 7 1 5 25% 1294 82078 13828 52%
c x 22.25 29 210 0 24 7311 27 79958 15957 3.3 24 7 1 5 25% 1316 81830 13828 52%
c = 22.55 29 210 0 24 7311 27 79958 15957 3.3 24 7 1 5 25% 1886 81820 13543 51%
c d 22.55 29 210 0 24 7311 27 79958 15697 3.3 24 7 1 5 25% 1259 81820 13543 51%
c t 22.56 29 210 0 24 7311 27 79958 15697 3.3 24 7 1 5 25% 1204 81820 13543 51%
c f 22.58 29 210 0 24 7311 27 79958 15697 3.3 24 7 1 5 25% 1209 81798 13546 51%
c - 22.82 29 209 0 25 7478 27 81631 14618 3.3 24 7 1 5 25% 1222 81797 13546 51%
c - 23.71 29 205 0 26 8154 28 86631 16630 3.4 25 7 1 5 26% 1237 81797 13546 51%
c - 24.25 29 204 0 27 8549 27 91731 18318 3.4 25 7 1 5 26% 1267 81795 13546 51%
c s 24.82 29 201 0 27 8981 27 95811 22068 3.4 25 7 1 5 26% 1279 79665 13546 51%
c e 24.88 29 201 0 27 8981 27 95811 22068 3.4 25 7 1 5 26% 757 80944 13174 50%
c s 24.88 29 201 0 27 8981 27 95811 22068 3.4 25 7 1 5 26% 760 80520 13174 50%
c e 24.89 29 201 0 27 8981 27 95811 22068 3.4 25 7 1 5 26% 751 80541 13166 50%
c
c  seconds   switched     rate         size/glue tier1   binary         remaining
c         MB   reductions   conflicts        size  tier2    irredundant
c           level   restarts      redundant    glue   trail        variables
c
c ^ 24.89 29 201 0 27 8981 27 95811 22068 3.4 25 7 1 5 26% 751 80541 13166 50%
c - 25.12 29 201 0 28 9152 27 96929 17912 3.4 25 8 1 5 26% 759 80539 13166 50%
c - 25.91 29 197 0 29 9795 27 102220 19525 3.4 26 8 1 5 26% 777 80534 13166 50%
c c 26.36 29 195 0 29 10095 27 104587 21735 3.4 26 8 1 5 27% 819 80369 13143 50%
c d 26.36 29 195 0 29 10095 27 104587 21690 3.4 26 8 1 5 27% 773 80369 13143 50%
c u 26.40 29 195 0 29 10095 27 104587 19986 3.4 26 8 1 5 27% 787 80369 13143 50%
c v 26.47 29 195 0 29 10095 27 104587 17109 3.4 26 8 1 5 27% 789 80369 13143 50%
c w 26.57 29 195 0 29 10095 27 104587 17083 3.4 26 8 1 5 27% 789 80369 13143 50%
c x 26.65 29 195 0 29 10095 27 104587 17076 3.4 26 8 1 5 27% 802 79920 13143 50%
c = 27.01 29 195 0 29 10095 27 104587 17076 3.4 26 8 1 5 27% 1212 79876 12936 49%
c d 27.02 29 195 0 29 10095 27 104587 16834 3.4 26 8 1 5 27% 782 79876 12936 49%
c t 27.02 29 195 0 29 10095 27 104587 16834 3.4 26 8 1 5 27% 753 79876 12936 49%
c f 27.05 29 195 0 29 10095 27 104587 16834 3.4 26 8 1 5 27% 763 79816 12941 49%
c u 27.11 29 195 0 29 10095 27 104587 16294 3.4 26 8 1 5 27% 774 79816 12941 49%
c v 27.14 29 195 0 29 10095 27 104587 15656 3.4 26 8 1 5 27% 775 79816 12941 49%
c w 27.28 29 195 0 29 10095 27 104587 15263 3.4 26 8 1 5 27% 775 79816 12941 49%
c t 27.63 29 195 0 29 10095 27 104587 15263 3.4 26 8 1 5 27% 774 79816 12941 49%
c - 28.01 29 193 0 30 10366 26 107605 15537 3.4 26 8 1 5 27% 799 79814 12941 49%
c o 28.37 29 190 0 30 10623 26 110360 18115 3.3 26 8 1 5 27% 813 79810 12941 49%
c - 28.74 29 189 0 31 10889 26 113082 17867 3.3 26 8 1 5 27% 824 79810 12941 49%
c
c  seconds   switched      rate          size/glue tier1   binary         remaining
c         MB   reductions    conflicts         size  tier2    irredundant
c           level   restarts        redundant    glue   trail        variables
c
c - 29.28 29 182 0 32 11280 25 118650 19649 3.2 26 8 1 5 27% 853 79808 12941 49%
c - 29.66 29 177 0 33 11506 24 124307 20537 3.2 25 8 1 5 27% 927 79807 12941 49%
c - 29.85 29 169 0 34 11641 23 130051 20780 3.1 25 8 1 5 26% 999 79807 12941 49%
c i 29.85 29 169 0 34 11641 22 130241 20887 3.1 25 8 1 5 26% 1008 79807 12940 49%
c d 29.96 29 166 0 34 11706 22 132858 22762 3.1 25 8 1 5 26% 894 79797 12872 49%
c d 29.96 29 166 0 34 11706 22 132858 22762 3.1 25 8 1 5 26% 892 79797 12871 49%
c u 30.00 29 166 0 34 11706 22 132858 21379 3.1 25 8 1 5 26% 918 79797 12871 49%
c v 30.05 29 166 0 34 11706 22 132858 18676 3.1 25 8 1 5 26% 938 79797 12871 49%
c w 30.08 29 166 0 34 11706 22 132858 18505 3.1 25 8 1 5 26% 938 79797 12871 49%
c x 30.12 29 166 0 34 11706 22 132858 18497 3.1 25 8 1 5 26% 954 79631 12871 49%
c d 30.12 29 166 0 34 11706 22 132858 18421 3.1 25 8 1 5 26% 928 79631 12858 49%
c t 30.13 29 166 0 34 11706 22 132858 18421 3.1 25 8 1 5 26% 900 79631 12858 49%
c c 30.17 29 166 0 34 11706 22 132858 18298 3.1 25 8 1 5 26% 943 79349 12831 49%
c d 30.17 29 166 0 34 11706 22 132858 18292 3.1 25 8 1 5 26% 889 79349 12831 49%
c u 30.21 29 166 0 34 11706 22 132858 17994 3.1 25 8 1 5 26% 899 79349 12831 49%
c v 30.24 29 166 0 34 11706 22 132858 17213 3.1 25 8 1 5 26% 901 79349 12831 49%
c w 30.29 29 166 0 34 11706 22 132858 16880 3.1 25 8 1 5 26% 902 79349 12831 49%
c x 30.33 29 166 0 34 11706 22 132858 16875 3.1 25 8 1 5 26% 914 78091 12831 49%
c d 30.57 29 166 0 34 11706 22 132858 16874 3.1 25 8 1 5 26% 906 78091 12827 49%
c t 30.58 29 166 0 34 11706 22 132858 16874 3.1 25 8 1 5 26% 886 78091 12827 49%
c
c  seconds   switched      rate          size/glue tier1   binary         remaining
c         MB   reductions    conflicts         size  tier2    irredundant
c           level   restarts        redundant    glue   trail        variables
c
c - 30.67 29 162 0 35 11776 21 135883 16115 3.1 24 8 1 5 26% 910 78090 12827 49%
c i 30.83 29 155 0 35 11924 20 141605 21110 3.1 24 8 1 5 25% 960 78089 12825 49%
c - 30.83 29 154 0 36 11924 20 141801 18327 3.1 24 8 1 5 25% 959 78089 12825 49%
c i 30.84 29 154 0 36 11930 20 142071 18556 3.1 24 8 1 5 25% 959 78089 12823 49%
c i 30.85 29 153 0 36 11937 20 142560 18941 3.1 24 8 1 5 25% 968 78087 12822 49%
c i 30.86 29 153 0 36 11951 20 142808 19136 3.1 24 8 1 5 25% 973 78087 12821 49%
c i 30.87 29 153 0 36 11952 20 143267 19509 3.1 24 8 1 5 25% 982 78087 12820 49%
c i 30.87 29 152 0 36 11952 20 143301 19526 3.1 24 8 1 5 25% 985 78086 12815 49%
c i 30.87 29 152 0 36 11952 20 143305 19527 3.1 24 8 1 5 25% 987 78086 12813 49%
c i 30.87 29 152 0 36 11952 20 143308 19527 3.1 24 8 1 5 25% 989 78086 12812 49%
c } 30.87 29 152 0 36 11952 20 143314 19528 3.1 24 8 1 5 25% 990 78086 12803 48%
c 0 30.87 29 152 0 36 11952 20 143314 19528 3.1 24 8 1 5 25% 990 78086 12803 48%
c
c ---- [ result ] ------------------------------------------------------------
c
s UNSATISFIABLE
c
c ---- [ profiling ] ---------------------------------------------------------
c
c          21.69   70.27 %  search
c          21.69   70.27 %  focused
c           8.72   28.24 %  simplify
c           8.39   27.19 %  probe
c           3.45   11.17 %  sweep
c           3.15   10.21 %  vivify
c           0.61    1.96 %  factor
c           0.58    1.89 %  congruence
c           0.51    1.65 %  eliminate
c           0.47    1.52 %  substitute
c           0.41    1.33 %  preprocess
c           0.22    0.71 %  fastel
c           0.17    0.56 %  reduce
c           0.09    0.28 %  subsume
c           0.08    0.26 %  transitive
c           0.05    0.17 %  backbone
c           0.03    0.10 %  lucky
c           0.02    0.06 %  parse
c =============================================
c          30.87  100.00 %  total
c
c ---- [ statistics ] --------------------------------------------------------
c
c chronological:                         5737                4 %  conflicts
c conflicts:                           143314             4642.32 per second
c congruent:                              361                1 %  variables
c decisions:                          3136826               21.89 per conflict
c eliminated:                           10522               40 %  variables
c factored:                              3318               13 %  variables
c fast_eliminated:                       9399               89 %  eliminated
c fast_strengthened:                       23                2 %  per strengthened
c fast_subsumed:                          140                0 %  per subsumed
c iterations:                              10                0 %  variables
c propagations:                     117074370          3792347    per second
c reductions:                              36             3981    interval
c reordered:                                5            28663    interval
c restarts:                             11952               12    interval
c strengthened:                           949                0 %  checks
c substituted:                           6369               24 %  variables
c subsumed:                             29916                1 %  checks
c switched:                                 0                0    interval
c vivified:                             57673               13 %  checks
c
c ---- [ glue usage ] --------------------------------------------------------
c
c focused glue 1 used 227364 clauses 55.66% accumulated 55.66% tier1
c focused glue 2 used  88638 clauses 21.70% accumulated 77.36%
c focused glue 3 used  28678 clauses  7.02% accumulated 84.38%
c focused glue 4 used  16230 clauses  3.97% accumulated 88.35%
c focused glue 5 used  10881 clauses  2.66% accumulated 91.02% tier2
c
c ---- [ resources ] ---------------------------------------------------------
c
c maximum-resident-set-size:         30351360 bytes         29 MB
c process-time:                            31s              30.87 seconds
c
c ---- [ shutting down ] -----------------------------------------------------
c
c exit 20
